c Generated map
c Size: 9 * 9, weights in range: 1 to 10, walls: True, with ratio 0.1
c dim 5 of 7
c
p sp 81 116
c graph contains 81 nodes and 116 arcs
c
a 1 10 7
a 10 1 7
a 1 2 1
a 2 1 1
a 2 11 7
a 11 2 7
a 2 3 10
a 3 2 10
a 3 12 8
a 12 3 8
a 3 4 9
a 4 3 9
a 4 13 4
a 13 4 4
a 7 16 1
a 16 7 1
a 7 8 10
a 8 7 10
a 8 17 5
a 17 8 5
a 8 9 3
a 9 8 3
a 9 18 2
a 18 9 2
a 10 19 2
a 19 10 2
a 10 11 3
a 11 10 3
a 11 20 9
a 20 11 9
a 11 12 3
a 12 11 3
a 12 21 3
a 21 12 3
a 12 13 3
a 13 12 3
a 13 22 7
a 22 13 7
a 13 14 4
a 14 13 4
a 14 23 1
a 23 14 1
a 14 15 5
a 15 14 5
a 15 24 7
a 24 15 7
a 15 16 6
a 16 15 6
a 16 25 9
a 25 16 9
a 16 17 4
a 17 16 4
a 17 26 2
a 26 17 2
a 17 18 4
a 18 17 4
a 18 27 10
a 27 18 10
a 19 28 4
a 28 19 4
a 19 20 1
a 20 19 1
a 20 29 4
a 29 20 4
a 20 21 4
a 21 20 4
a 21 30 4
a 30 21 4
a 21 22 10
a 22 21 10
a 22 23 8
a 23 22 8
a 23 32 9
a 32 23 9
a 23 24 4
a 24 23 4
a 24 33 9
a 33 24 9
a 24 25 8
a 25 24 8
a 25 34 10
a 34 25 10
a 25 26 1
a 26 25 1
a 26 35 4
a 35 26 4
a 26 27 8
a 27 26 8
a 27 36 3
a 36 27 3
a 28 37 5
a 37 28 5
a 28 29 10
a 29 28 10
a 29 38 5
a 38 29 5
a 29 30 9
a 30 29 9
a 32 41 3
a 41 32 3
a 32 33 2
a 33 32 2
a 33 42 9
a 42 33 9
a 33 34 5
a 34 33 5
a 34 43 2
a 43 34 2
a 34 35 3
a 35 34 3
a 35 44 7
a 44 35 7
a 35 36 2
a 36 35 2
a 36 45 3
a 45 36 3
a 37 46 1
a 46 37 1
a 37 38 3
a 38 37 3
a 38 47 2
a 47 38 2
a 40 49 7
a 49 40 7
a 40 41 3
a 41 40 3
a 41 50 9
a 50 41 9
a 41 42 4
a 42 41 4
a 42 43 6
a 43 42 6
a 43 52 3
a 52 43 3
a 43 44 1
a 44 43 1
a 44 53 4
a 53 44 4
a 44 45 7
a 45 44 7
a 45 54 7
a 54 45 7
a 46 55 6
a 55 46 6
a 46 47 4
a 47 46 4
a 47 56 4
a 56 47 4
a 47 48 10
a 48 47 10
a 48 49 9
a 49 48 9
a 49 58 6
a 58 49 6
a 49 50 8
a 50 49 8
a 50 59 1
a 59 50 1
a 52 61 8
a 61 52 8
a 52 53 4
a 53 52 4
a 53 62 3
a 62 53 3
a 53 54 5
a 54 53 5
a 54 63 8
a 63 54 8
a 55 64 6
a 64 55 6
a 55 56 8
a 56 55 8
a 56 65 6
a 65 56 6
a 58 59 1
a 59 58 1
a 59 68 4
a 68 59 4
a 59 60 3
a 60 59 3
a 60 69 1
a 69 60 1
a 60 61 10
a 61 60 10
a 61 70 6
a 70 61 6
a 61 62 2
a 62 61 2
a 62 71 1
a 71 62 1
a 62 63 1
a 63 62 1
a 63 72 7
a 72 63 7
a 64 73 6
a 73 64 6
a 64 65 7
a 65 64 7
a 65 66 10
a 66 65 10
a 66 75 4
a 75 66 4
a 68 77 5
a 77 68 5
a 68 69 7
a 69 68 7
a 69 78 4
a 78 69 4
a 69 70 7
a 70 69 7
a 70 79 4
a 79 70 4
a 70 71 10
a 71 70 10
a 71 80 7
a 80 71 7
a 71 72 6
a 72 71 6
a 72 81 7
a 81 72 7
a 75 76 4
a 76 75 4
a 76 77 8
a 77 76 8
a 77 78 7
a 78 77 7
a 78 79 3
a 79 78 3
a 79 80 1
a 80 79 1
a 80 81 10
a 81 80 10
